db/data/64421427330507190462891364142748115074.z3.out
sat
-------------------
16.423739311
